%nproc=1
#p freq external='/mlatom/software/miniconda3/bin/python /mlatom/home/fatemealavi/mlatom_devBranch/mlatom/interfaces/gaussian_interface.py model_predict_kwargs'

7e571614-236f-4b7e-aa6b-09bb26c16908

0 1
C            -0.5330883366487          -0.0000000494606           0.0000020984237
O             0.6782235186398           0.0000005194583          -0.0000047683005
H            -1.1136329423785           0.9380808466973          -0.0000068035594
H            -1.1136251868468          -0.9380847055988           0.0000323594203

