%nproc=1
#p freq external='/mlatom/software/miniconda3/bin/python /mlatom/home/fatemealavi/mlatom_devBranch/mlatom/interfaces/gaussian_interface.py model_predict_kwargs'

f559a11c-2007-4e6d-b5a6-e26a8693d9de

0 1
N            -0.0000000000000           0.5190787151280           0.0000000000000
O            -1.1117436693767           0.1541768757492           0.0000000000000
O             0.8922450170884          -0.5889971160044          -0.0000000000000
H             1.7559892183047          -0.1549890838549          -0.0000000000000

