%nproc=1
#p freq external='/mlatom/software/miniconda3/bin/python /mlatom/home/fatemealavi/mlatom_devBranch/mlatom/interfaces/gaussian_interface.py model_predict_kwargs'

06fa8f1c-d54d-4d4a-b7f8-7486c9556c30

0 1
C            -0.1337345795641           0.4013524817659           0.0000252091937
O            -1.1373090855468          -0.2637831680026          -0.0000104880431
O             1.1207512824460          -0.0918855516632          -0.0000077793458
H            -0.1036075868105           1.4956744629582           0.0000338718189
H             1.0384774890000          -1.0584395962274          -0.0000389878713

