%nproc=1
#p freq external='/mlatom/software/miniconda3/bin/python /mlatom/home/fatemealavi/mlatom_devBranch/mlatom/interfaces/gaussian_interface.py model_predict_kwargs'

5079a3f5-7031-4461-a308-ec180723cb16

0 1
C            -0.1324272808207           0.4008119781454           0.0000288659527
O            -1.1387464770273          -0.2623177242719          -0.0000123003136
O             1.1207379592286          -0.0924247757892          -0.0000081341009
H            -0.0971546040362           1.4926910020240           0.0000309898203
H             1.0357864313526          -1.0596228704082          -0.0000407102199

