%nproc=1
#p freq external='/mlatom/software/miniconda3/bin/python /mlatom/home/fatemealavi/mlatom_devBranch/mlatom/interfaces/gaussian_interface.py model_predict_kwargs'

7616cb04-774f-4506-8f37-a18a81af3417

0 1
C            -0.0468405327965           0.6666850002632           0.0000000000000
H             0.4395679836782           1.0741519504104           0.8922011206402
H             0.4395679836782           1.0741519504104          -0.8922011206402
H            -1.0906119880215           0.9787150615710           0.0000000000000
H             0.8672434798171          -1.0556259415571           0.0000000000000
O            -0.0468405327965          -0.7589378778018           0.0000000000000

