%nproc=1
#p freq(anharmonic) external='/mlatom/software/miniconda3/bin/python3 /mlatom/home/fatemealavi/mlatom_devBranch/mlatom/interfaces/gaussian_interface.py model_predict_kwargs'

806b05ff-f70f-455e-a69d-ce92b5c6b86a

0 1
C            -0.5311484757782           0.0000000171903           0.0000994805007
O             0.6757633255395          -0.0000001245471          -0.0000628527481
H            -1.1096069647276           0.9382025325437          -0.0000666145704
H            -1.1096087849209          -0.9382016393085          -0.0000274464476

