%nproc=1
#p freq external='/mlatom/software/miniconda3/bin/python /mlatom/home/fatemealavi/mlatom_devBranch/mlatom/interfaces/gaussian_interface.py model_predict_kwargs'

dde8270d-01bf-495b-916a-68db3e2cc19c

0 1
C             0.0740832955105           0.1459901582762          -0.0084668186575
O             0.3749647000240           1.3306311620779           0.0021519023128
C            -1.3594046610158          -0.3285961828373          -0.0003835162459
H            -1.9455923266998           0.3302672850176          -0.6341545594787
H            -1.7427908713179          -0.2482471167186           1.0161703119424
H            -1.4678731337449          -1.3574192364052          -0.3368814323454
N             1.0165014381817          -0.8411409404767          -0.0145863762535
H             1.9833076074982          -0.5748131978786           0.0569923797417
H             0.7696492498286          -1.8112142999398           0.0358647248313

