%nproc=1
#p freq external='/mlatom/software/miniconda3/bin/python /mlatom/home/fatemealavi/mlatom_devBranch/mlatom/interfaces/gaussian_interface.py model_predict_kwargs'

4cac9105-0f8a-4cc5-a3be-8603005d058c

0 1
C            -1.3170128829625          -0.0454397687203           0.0000001875002
H            -1.6545091520014           0.4795140583128          -0.8878348125002
H            -1.6545071520010           0.4795130583140           0.8878361875000
H            -1.6238143508987          -1.0836109259564           0.0000001875002
N             0.1674940932099           0.0010539920908          -0.0000008124997
O             0.7756826409109          -1.0676286962119           0.0000001875002
O             0.6821235216149           1.1163592558390           0.0000001875002

