%nproc=1
#p freq external='/mlatom/software/miniconda3/bin/python /mlatom/home/fatemealavi/mlatom_devBranch/mlatom/interfaces/gaussian_interface.py model_predict_kwargs'

1b296d13-3567-4bfa-b4e9-11bea1d87d5b

0 1
C            -0.0467346111111           0.6659347777777           0.0000000000000
H             0.4373823888889           1.0728567777776           0.8893160000002
H             0.4373823888889           1.0728567777776          -0.8893160000002
H            -1.0876796111109           0.9752327777779           0.0000000000000
H             0.8671993888888          -1.0551132222220           0.0000000000000
O            -0.0467346111111          -0.7576802222224           0.0000000000000

